c ---- [ banner ] ------------------------------------------------------------
c
c Kissat SAT Solver
c 
c Copyright (c) 2021-2024 Armin Biere University of Freiburg
c Copyright (c) 2019-2021 Armin Biere Johannes Kepler University Linz
c 
c Version 4.0.1 43f02cf3e992cb44653b35e5cb26f93281552ae0
c gcc (Ubuntu 13.2.0-23ubuntu4) 13.2.0 -W -Wall -O3 -DNDEBUG
c Thu Sep 12 12:27:46 CEST 2024 Linux abryzen9 6.8.0-41-generic x86_64
c
c ---- [ parsing ] -----------------------------------------------------------
c
c opened and reading DIMACS file:
c
c   /data/artifact/AMulet2.0_artifact/exp4/cnf_resyn3_64/64_64_U_SP_WT_CK_GenMul_resyn3.cnf
c
c parsed 'p cnf 26601 118121' header
c closing input after reading 2343785 bytes (2 MB)
c finished parsing after 0.03 seconds
c
c ---- [ options ] -----------------------------------------------------------
c
c --stable=0                       (different from default '1')
c
c ---- [ solving ] -----------------------------------------------------------
c
c  seconds switched rate     size/glue tier1  binary           remaining
c         MB reductions conflicts size  tier2     irredundant
c          level restarts redundant glue  trail           variables
c
c *  0.03 10 0 0 0  0 0   0   0 0.0 0 0 0 0 0% 10798 107321 26598 100%
c (  0.06 11 0 0 0  0 0   0   0 0.0 0 0 0 0 0% 10798 107321 26598 100%
c .  0.07 12 0 0 0  0 0   0   0 0.0 0 0 0 0 0% 10794 107321 26598 100%
c c  0.15 16 0 0 0  0 0   0   0 0.0 0 0 0 0 0% 10885 107320 26594 100%
c d  0.15 16 0 0 0  0 0   0   0 0.0 0 0 0 0 0% 10877 107320 26594 100%
c =  0.21 16 0 0 0  0 0   0   0 0.0 0 0 0 0 0% 11233 107320 26414 99%
c d  0.22 16 0 0 0  0 0   0   0 0.0 0 0 0 0 0% 10873 107320 26414 99%
c f  0.34 16 0 0 0  0 0   0   0 0.0 0 0 0 0 0% 16193 98998 29378 110%
c e  0.51 20 0 0 0  0 0   0   0 0.0 0 0 0 0 0% 10310 107201 20445 77%
c )  0.51 20 0 0 0  0 0   0   0 0.0 0 0 0 0 0% 10310 107201 20445 77%
c {  0.54 25 0 0 0  0 0   0   0 0.0 0 0 2 6 0% 10310 107201 20445 77%
c -  0.71 25 124 0 1 215 27 1000 680 3.8 19 5 3 8 13% 10395 107195 20445 77%
c -  0.99 27 296 0 2 368 40 2000 1369 3.7 20 5 3 9 20% 10434 107195 20445 77%
c d  1.06 27 348 0 2 397 37 2504 1748 3.9 19 5 3 9 20% 10489 107185 20441 77%
c u  1.08 27 348 0 2 397 37 2504 1325 3.9 19 5 3 9 20% 10506 107185 20441 77%
c v  1.11 27 348 0 2 397 37 2504 1159 3.9 19 5 3 9 20% 10506 107185 20441 77%
c w  1.12 27 348 0 2 397 37 2504 1159 3.9 19 5 3 9 20% 10506 107185 20441 77%
c x  1.14 27 348 0 2 397 37 2504 1159 3.9 19 5 3 9 20% 10524 107151 20441 77%
c =  1.21 27 348 0 2 397 37 2504 1159 3.9 19 5 3 9 20% 10854 107151 20276 76%
c d  1.21 27 348 0 2 397 37 2504 1156 3.9 19 5 3 9 20% 10520 107151 20274 76%
c
c  seconds   switched   rate       size/glue tier1    binary           remaining
c         MB  reductions conflicts       size  tier2      irredundant
c           level restarts    redundant    glue   trail           variables
c
c t  1.23 27 348 0 2 397 37 2504 1156 3.9 19 5 3 9 20% 10517 107151 20274 76%
c f  1.25 27 348 0 2 397 37 2504 1156 3.9 19 5 3 9 20% 11072 106041 20829 78%
c c  1.33 23 348 0 2 397 37 2504 1152 3.9 19 5 3 9 20% 11077 106033 20828 78%
c d  1.34 23 348 0 2 397 37 2504 1152 3.9 19 5 3 9 20% 11075 106033 20828 78%
c u  1.36 23 348 0 2 397 37 2504 1119 3.9 19 5 3 9 20% 11075 106033 20828 78%
c v  1.37 23 348 0 2 397 37 2504 1071 3.9 19 5 3 9 20% 11075 106033 20828 78%
c w  1.41 24 348 0 2 397 37 2504 1066 3.9 19 5 3 9 20% 11075 106033 20828 78%
c x  1.43 24 348 0 2 397 37 2504 1066 3.9 19 5 3 9 20% 11075 106025 20828 78%
c =  1.49 24 348 0 2 397 37 2504 1066 3.9 19 5 3 9 20% 11213 106025 20759 78%
c d  1.50 24 348 0 2 397 37 2504 1064 3.9 19 5 3 9 20% 11075 106025 20759 78%
c t  1.51 24 348 0 2 397 37 2504 1064 3.9 19 5 3 9 20% 11074 106025 20759 78%
c -  1.90 28 388 0 3 595 42 3415 1671 4.6 25 5 2 9 21% 11104 106025 20759 78%
c -  2.26 29 446 0 4 787 44 5147 2832 4.8 25 5 2 8 20% 11205 106016 20759 78%
c -  2.80 29 394 0 5 1035 43 7147 3947 4.7 25 5 2 8 21% 11292 106014 20759 78%
c d  2.95 29 385 0 5 1094 42 7709 4430 4.5 24 5 2 8 22% 11259 106014 20732 78%
c u  2.98 29 385 0 5 1094 42 7709 3882 4.5 24 5 2 8 22% 11283 106014 20732 78%
c v  3.02 29 385 0 5 1094 42 7709 3278 4.5 24 5 2 8 22% 11284 106014 20732 78%
c w  3.06 29 385 0 5 1094 42 7709 3269 4.5 24 5 2 8 22% 11284 106014 20732 78%
c =  3.20 29 385 0 5 1094 42 7709 3269 4.5 24 5 2 8 22% 11782 106014 20483 77%
c d  3.21 29 385 0 5 1094 42 7709 3266 4.5 24 5 2 8 22% 11212 106014 20482 77%
c
c  seconds   switched    rate       size/glue tier1    binary           remaining
c         MB  reductions  conflicts       size  tier2      irredundant
c           level  restarts    redundant    glue   trail           variables
c
c t  3.23 29 385 0 5 1094 42 7709 3266 4.5 24 5 2 8 22% 11208 106014 20482 77%
c f  3.28 29 385 0 5 1094 42 7709 3266 4.5 24 5 2 8 22% 11536 105503 20647 78%
c u  3.32 29 385 0 5 1094 42 7709 3186 4.5 24 5 2 8 22% 11537 105503 20647 78%
c v  3.35 29 385 0 5 1094 42 7709 3104 4.5 24 5 2 8 22% 11537 105503 20647 78%
c w  3.38 29 385 0 5 1094 42 7709 3093 4.5 24 5 2 8 22% 11537 105503 20647 78%
c x  3.42 29 385 0 5 1094 42 7709 3093 4.5 24 5 2 8 22% 11538 104934 20647 78%
c =  3.56 29 385 0 5 1094 42 7709 3093 4.5 24 5 2 8 22% 12418 104934 20207 76%
c d  3.57 29 385 0 5 1094 42 7709 3072 4.5 24 5 2 8 22% 11421 104934 20207 76%
c t  3.59 29 385 0 5 1094 42 7709 3072 4.5 24 5 2 8 22% 11340 104934 20207 76%
c f  3.63 29 385 0 5 1094 42 7709 3072 4.5 24 5 2 8 22% 13712 101375 21393 80%
c -  4.02 29 403 0 6 1247 40 9383 4075 4.6 24 5 2 8 21% 13813 101368 21393 80%
c o  4.18 29 404 0 6 1312 40 10020 4635 4.6 25 5 2 8 22% 13842 101361 21393 80%
c -  5.10 29 386 0 7 1664 42 11832 5526 4.8 28 6 2 8 24% 13895 101361 21393 80%
c s  5.39 29 384 0 7 1760 43 12512 6138 4.8 28 6 2 8 24% 13913 96455 21393 80%
c e  5.51 29 384 0 7 1760 43 12512 6138 4.8 28 6 2 8 24% 13283 96938 20945 79%
c 2  5.51 29 384 0 7 1760 43 12512 6138 4.8 28 6 2 8 24% 13282 96938 20945 79%
c s  5.51 29 384 0 7 1760 43 12512 6138 4.8 28 6 2 8 24% 13286 96869 20945 79%
c e  5.53 29 384 0 7 1760 43 12512 6138 4.8 28 6 2 8 24% 13283 96868 20943 79%
c ^  5.53 29 384 0 7 1760 43 12512 6138 4.8 28 6 2 8 24% 13283 96868 20943 79%
c -  6.02 29 370 0 8 1940 42 14480 6681 4.7 29 6 2 8 24% 13379 96866 20943 79%
c
c  seconds   switched    rate        size/glue tier1    binary          remaining
c         MB  reductions   conflicts       size  tier2      irredundant
c           level  restarts     redundant    glue   trail          variables
c
c c  6.52 29 372 0 8 2107 41 15790 7837 4.8 30 6 2 8 24% 13437 96746 20899 79%
c d  6.52 29 372 0 8 2107 41 15790 7813 4.8 30 6 2 8 24% 13035 96746 20715 78%
c u  6.57 29 372 0 8 2107 41 15790 6794 4.8 30 6 2 8 24% 13062 96746 20715 78%
c v  6.62 29 372 0 8 2107 41 15790 5838 4.8 30 6 2 8 24% 13066 96746 20715 78%
c w  6.73 29 372 0 8 2107 41 15790 5837 4.8 30 6 2 8 24% 13066 96746 20715 78%
c x  6.77 29 372 0 8 2107 41 15790 5837 4.8 30 6 2 8 24% 13068 96623 20715 78%
c =  7.01 29 372 0 8 2107 41 15790 5837 4.8 30 6 2 8 24% 13632 96623 20433 77%
c d  7.02 29 372 0 8 2107 41 15790 5815 4.8 30 6 2 8 24% 12935 96623 20432 77%
c t  7.04 29 372 0 8 2107 41 15790 5815 4.8 30 6 2 8 24% 12856 96623 20432 77%
c f  7.10 29 372 0 8 2107 41 15790 5815 4.8 30 6 2 8 24% 12863 96608 20436 77%
c u  7.16 29 372 0 8 2107 41 15790 5617 4.8 30 6 2 8 24% 12865 96608 20436 77%
c v  7.19 29 372 0 8 2107 41 15790 5494 4.8 30 6 2 8 24% 12865 96608 20436 77%
c w  7.37 29 372 0 8 2107 41 15790 5458 4.8 30 6 2 8 24% 12865 96608 20436 77%
c =  7.62 29 372 0 8 2107 41 15790 5458 4.8 30 6 2 8 24% 14703 96608 19517 73%
c d  7.63 29 372 0 8 2107 41 15790 5395 4.8 30 6 2 8 24% 12267 96608 19517 73%
c t  7.65 29 372 0 8 2107 41 15790 5395 4.8 30 6 2 8 24% 12261 96608 19517 73%
c -  8.15 29 357 0 9 2256 40 17309 5906 4.8 31 6 2 8 24% 12314 96608 19517 73%
c o  8.94 29 334 0 9 2561 39 20170 8495 4.7 32 7 2 8 24% 12380 96598 19517 73%
c -  9.03 29 332 0 10 2590 39 20309 7681 4.7 32 7 2 7 24% 12382 96598 19517 73%
c -  9.88 29 319 0 11 2872 37 23474 9240 4.3 32 7 2 7 24% 12464 96592 19517 73%
c
c  seconds   switched     rate         size/glue tier1    binary          remaining
c         MB   reductions   conflicts        size  tier2      irredundant
c           level   restarts      redundant    glue   trail          variables
c
c s 10.32 29 319 0 11 3020 38 25015 10586 4.4 33 7 2 7 25% 12493 92664 19517 73%
c e 10.44 29 319 0 11 3020 38 25015 10586 4.4 33 7 2 7 25% 10168 96054 18103 68%
c s 10.45 29 319 0 11 3020 38 25015 10586 4.4 33 7 2 7 25% 10195 95582 18103 68%
c ^ 10.46 29 319 0 11 3020 38 25015 10586 4.4 33 7 2 7 25% 10195 95582 18103 68%
c - 10.78 29 311 0 12 3123 36 26791 9690 4.3 32 7 2 7 24% 10225 95580 18103 68%
c c 10.85 29 311 0 12 3123 36 26919 9809 4.3 32 7 2 7 24% 10349 95020 18028 68%
c d 10.86 29 311 0 12 3123 36 26919 9731 4.3 32 7 2 7 24% 10159 95020 18004 68%
c u 10.91 29 311 0 12 3123 36 26919 8540 4.3 32 7 2 7 24% 10180 95020 18004 68%
c v 10.97 29 311 0 12 3123 36 26919 7555 4.3 32 7 2 7 24% 10181 95020 18004 68%
c w 10.98 29 311 0 12 3123 36 26919 7555 4.3 32 7 2 7 24% 10181 95020 18004 68%
c x 11.06 29 311 0 12 3123 36 26919 7554 4.3 32 7 2 7 24% 10368 93065 18004 68%
c = 11.36 29 311 0 12 3123 36 26919 7554 4.3 32 7 2 7 24% 14486 93065 15945 60%
c d 11.37 29 311 0 12 3123 36 26919 7495 4.3 32 7 2 7 24% 10321 93065 15937 60%
c t 11.39 29 311 0 12 3123 36 26919 7495 4.3 32 7 2 7 24% 10153 93065 15937 60%
c f 11.46 29 311 0 12 3123 36 26919 7495 4.3 32 7 2 7 24% 10214 92837 15978 60%
c c 11.53 29 311 0 12 3123 36 26919 7474 4.3 32 7 2 7 24% 10238 92741 15966 60%
c d 11.53 29 311 0 12 3123 36 26919 7474 4.3 32 7 2 7 24% 10214 92741 15966 60%
c u 11.58 29 311 0 12 3123 36 26919 6991 4.3 32 7 2 7 24% 10221 92741 15966 60%
c v 11.61 29 311 0 12 3123 36 26919 6852 4.3 32 7 2 7 24% 10222 92741 15966 60%
c w 11.62 29 311 0 12 3123 36 26919 6850 4.3 32 7 2 7 24% 10222 92741 15966 60%
c
c  seconds   switched     rate        size/glue tier1    binary          remaining
c         MB   reductions   conflicts       size  tier2      irredundant
c           level   restarts     redundant    glue   trail          variables
c
c x 11.74 29 311 0 12 3123 36 26919 6850 4.3 32 7 2 7 24% 10235 84158 15966 60%
c = 12.01 29 311 0 12 3123 36 26919 6850 4.3 32 7 2 7 24% 12225 84144 14971 56%
c d 12.02 29 311 0 12 3123 36 26919 6756 4.3 32 7 2 7 24% 10184 84144 14971 56%
c t 12.04 29 311 0 12 3123 36 26919 6756 4.3 32 7 2 7 24% 9986 84144 14971 56%
c f 12.07 29 311 0 12 3123 36 26919 6756 4.3 32 7 2 7 24% 10028 83965 15016 56%
c - 12.82 29 305 0 13 3368 35 30259 8539 4.2 32 7 2 7 25% 10104 83965 15016 56%
c - 13.66 29 303 0 14 3697 34 33865 10511 4.1 32 8 2 7 25% 10164 83965 15016 56%
c - 14.34 29 299 0 15 3936 33 37606 12126 4.0 31 8 2 7 25% 10232 83965 15016 56%
c i 14.63 29 296 0 15 4037 32 39414 13684 4.0 31 8 2 7 25% 10299 83964 15013 56%
c i 14.63 29 296 0 15 4037 32 39416 13683 4.0 31 8 2 7 25% 10300 83964 15012 56%
c o 14.82 29 293 0 15 4125 32 40215 14433 4.0 31 8 2 7 25% 10310 83964 15012 56%
c d 15.17 29 288 0 15 4249 32 41247 15208 4.0 31 8 2 7 25% 10217 83940 14955 56%
c d 15.17 29 288 0 15 4249 32 41247 15206 4.0 31 8 2 7 25% 10203 83940 14948 56%
c u 15.24 29 288 0 15 4249 32 41247 12801 4.0 31 8 2 7 25% 10230 83940 14948 56%
c v 15.31 29 288 0 15 4249 32 41247 11859 4.0 31 8 2 7 25% 10230 83940 14948 56%
c w 15.36 29 288 0 15 4249 32 41247 11859 4.0 31 8 2 7 25% 10230 83940 14948 56%
c x 15.45 29 288 0 15 4249 32 41247 11859 4.0 31 8 2 7 25% 10230 76587 14948 56%
c = 15.71 29 288 0 15 4249 32 41247 11859 4.0 31 8 2 7 25% 10242 76587 14942 56%
c d 15.72 29 288 0 15 4249 32 41247 11847 4.0 31 8 2 7 25% 10218 76587 14938 56%
c t 15.74 29 288 0 15 4249 32 41247 11847 4.0 31 8 2 7 25% 10185 76587 14938 56%
c
c  seconds   switched     rate         size/glue tier1    binary          remaining
c         MB   reductions   conflicts        size  tier2      irredundant
c           level   restarts      redundant    glue   trail          variables
c
c c 15.82 29 288 0 15 4249 32 41247 11847 4.0 31 8 2 7 25% 10254 76267 14894 56%
c d 15.83 29 288 0 15 4249 32 41247 11733 4.0 31 8 2 7 25% 10166 76267 14894 56%
c u 15.89 29 288 0 15 4249 32 41247 11275 4.0 31 8 2 7 25% 10168 76267 14894 56%
c v 15.96 29 288 0 15 4249 32 41247 10645 4.0 31 8 2 7 25% 10170 76267 14894 56%
c w 16.06 29 288 0 15 4249 32 41247 10643 4.0 31 8 2 7 25% 10170 76267 14894 56%
c x 16.13 29 288 0 15 4249 32 41247 10642 4.0 31 8 2 7 25% 10179 74483 14894 56%
c = 16.40 29 288 0 15 4249 32 41247 10642 4.0 31 8 2 7 25% 10979 74483 14494 54%
c d 16.41 29 288 0 15 4249 32 41247 10543 4.0 31 8 2 7 25% 10154 74483 14490 54%
c t 16.43 29 288 0 15 4249 32 41247 10543 4.0 31 8 2 7 25% 10120 74483 14490 54%
c f 16.45 29 288 0 15 4249 32 41247 10543 4.0 31 8 2 7 25% 10121 74479 14491 54%
c - 16.51 29 287 0 16 4264 32 41478 9457 4.0 31 8 2 6 25% 10122 74479 14491 54%
c - 17.25 29 277 0 17 4572 31 45481 11399 3.9 31 8 2 6 25% 10202 74471 14491 54%
c i 17.36 29 276 0 17 4620 31 45876 11746 3.9 31 8 2 6 25% 10209 74471 14490 54%
c - 18.24 29 270 0 18 4977 31 49604 13237 3.9 31 8 2 6 25% 10298 74470 14490 54%
c s 18.58 29 264 0 18 5105 30 52117 15379 3.9 31 8 2 6 25% 10345 70011 14490 54%
c e 18.67 29 264 0 18 5105 30 52117 15379 3.9 31 8 2 6 25% 9379 71148 13947 52%
c 2 18.67 29 264 0 18 5105 30 52117 15379 3.9 31 8 2 6 25% 9368 71148 13947 52%
c s 18.68 29 264 0 18 5105 30 52117 15379 3.9 31 8 2 6 25% 9379 70610 13947 52%
c e 18.69 29 264 0 18 5105 30 52117 15379 3.9 31 8 2 6 25% 9361 70599 13925 52%
c ^ 18.69 29 264 0 18 5105 30 52117 15379 3.9 31 8 2 6 25% 9361 70599 13925 52%
c
c  seconds   switched     rate         size/glue tier1    binary         remaining
c         MB   reductions   conflicts        size  tier2     irredundant
c           level   restarts      redundant    glue   trail         variables
c
c - 19.05 29 262 0 19 5232 30 53848 12006 3.9 31 8 1 6 25% 9389 70597 13925 52%
c i 19.64 29 257 0 19 5457 28 57525 15345 3.8 30 8 1 6 25% 9426 70595 13924 52%
c i 19.64 29 255 0 19 5460 28 57942 15631 3.8 30 8 1 6 25% 9435 70595 13923 52%
c - 19.66 29 254 0 20 5460 28 58209 12874 3.8 30 8 1 6 25% 9432 70595 13923 52%
c c 19.84 29 253 0 20 5523 28 58889 13465 3.8 30 8 1 6 25% 9542 70020 13844 52%
c d 19.84 29 253 0 20 5523 28 58889 13276 3.8 30 8 1 6 25% 9390 70016 13844 52%
c d 19.85 29 253 0 20 5523 28 58889 13275 3.8 30 8 1 6 25% 9386 70016 13842 52%
c u 19.89 29 253 0 20 5523 28 58889 11925 3.8 30 8 1 6 25% 9404 70016 13842 52%
c v 19.96 29 253 0 20 5523 28 58889 10084 3.8 30 8 1 6 25% 9417 70016 13842 52%
c w 20.03 29 253 0 20 5523 28 58889 10039 3.8 30 8 1 6 25% 9417 70016 13842 52%
c x 20.11 29 253 0 20 5523 28 58889 10031 3.8 30 8 1 6 25% 9446 69056 13842 52%
c = 20.43 29 253 0 20 5523 28 58889 10031 3.8 30 8 1 6 25% 10076 69056 13527 51%
c d 20.43 29 253 0 20 5523 28 58889 9901 3.8 30 8 1 6 25% 9399 69056 13512 51%
c t 20.45 29 253 0 20 5523 28 58889 9901 3.8 30 8 1 6 25% 9339 69056 13512 51%
c b 20.45 29 253 0 20 5523 28 58889 9901 3.8 30 8 1 6 25% 9339 69056 13511 51%
c f 20.48 29 253 0 20 5523 28 58889 9901 3.8 30 8 1 6 25% 9372 68876 13533 51%
c c 20.53 29 253 0 20 5523 28 58889 9891 3.8 30 8 1 6 25% 9380 68838 13528 51%
c d 20.54 29 253 0 20 5523 28 58889 9891 3.8 30 8 1 6 25% 9370 68838 13528 51%
c u 20.58 29 253 0 20 5523 28 58889 9541 3.8 30 8 1 6 25% 9377 68838 13528 51%
c v 20.63 29 253 0 20 5523 28 58889 9116 3.8 30 8 1 6 25% 9379 68838 13528 51%
c
c  seconds   switched     rate        size/glue tier1    binary         remaining
c         MB   reductions   conflicts       size  tier2     irredundant
c           level   restarts     redundant    glue   trail         variables
c
c w 20.70 29 253 0 20 5523 28 58889 9095 3.8 30 8 1 6 25% 9379 68838 13528 51%
c x 20.81 29 253 0 20 5523 28 58889 9092 3.8 30 8 1 6 25% 9406 68052 13528 51%
c = 20.98 29 253 0 20 5523 28 58889 9092 3.8 30 8 1 6 25% 9680 68031 13388 50%
c d 20.99 29 253 0 20 5523 28 58889 9023 3.8 30 8 1 6 25% 9377 68027 13387 50%
c t 21.01 29 253 0 20 5523 28 58889 9023 3.8 30 8 1 6 25% 9341 68027 13387 50%
c f 21.02 29 253 0 20 5523 28 58889 9023 3.8 30 8 1 6 25% 9348 67986 13391 50%
c i 21.18 29 252 0 20 5589 28 59874 9873 3.7 29 8 1 6 25% 9364 67984 13390 50%
c - 21.54 29 247 0 21 5749 27 62681 10147 3.7 29 8 1 6 25% 9436 67975 13390 50%
c - 22.53 29 239 0 22 6214 27 67264 12036 3.7 29 8 1 6 25% 9500 67974 13390 50%
c - 23.40 29 230 0 23 6608 26 71955 13506 3.7 29 8 1 6 25% 9563 67974 13390 50%
c o 23.42 29 229 0 23 6609 26 72167 13681 3.7 29 8 1 6 25% 9570 67974 13390 50%
c i 23.88 29 227 0 23 6824 26 74195 15529 3.7 29 8 1 6 25% 9590 67972 13389 50%
c - 24.42 29 223 0 24 7073 26 76750 14960 3.6 29 8 1 6 25% 9609 67969 13389 50%
c i 24.80 29 220 0 24 7247 25 79684 17444 3.6 28 8 1 6 25% 9679 67969 13388 50%
c d 24.89 29 220 0 24 7285 25 79987 17308 3.6 28 8 1 6 25% 9434 67959 13264 50%
c d 24.89 29 220 0 24 7285 25 79987 17308 3.6 28 8 1 6 25% 9431 67959 13263 50%
c u 24.95 29 220 0 24 7285 25 79987 15379 3.6 28 8 1 6 25% 9452 67959 13263 50%
c v 25.06 29 220 0 24 7285 25 79987 12729 3.6 28 8 1 6 25% 9461 67959 13263 50%
c w 25.14 29 220 0 24 7285 25 79987 12725 3.6 28 8 1 6 25% 9461 67959 13263 50%
c x 25.23 29 220 0 24 7285 25 79987 12721 3.6 28 8 1 6 25% 9468 64821 13263 50%
c
c  seconds   switched     rate         size/glue tier1    binary          remaining
c         MB   reductions   conflicts        size  tier2      irredundant
c           level   restarts      redundant    glue   trail          variables
c
c = 25.67 29 220 0 24 7285 25 79987 12721 3.6 28 8 1 6 25% 10015 64570 12961 49%
c d 25.68 29 220 0 24 7285 25 79987 12046 3.6 28 8 1 6 25% 9391 64569 12961 49%
c t 25.69 29 220 0 24 7285 25 79987 12046 3.6 28 8 1 6 25% 9298 64569 12961 49%
c f 25.71 29 220 0 24 7285 25 79987 12046 3.6 28 8 1 6 25% 9317 64489 12971 49%
c c 25.76 29 220 0 24 7285 25 79987 12043 3.6 28 8 1 6 25% 9309 64473 12969 49%
c d 25.76 29 220 0 24 7285 25 79987 12043 3.6 28 8 1 6 25% 9305 64473 12969 49%
c u 25.81 29 220 0 24 7285 25 79987 11454 3.6 28 8 1 6 25% 9308 64473 12969 49%
c v 25.87 29 220 0 24 7285 25 79987 10812 3.6 28 8 1 6 25% 9310 64473 12969 49%
c w 25.99 29 220 0 24 7285 25 79987 10668 3.6 28 8 1 6 25% 9310 64473 12969 49%
c x 26.04 29 220 0 24 7285 25 79987 10667 3.6 28 8 1 6 25% 9311 63181 12969 49%
c = 26.34 29 220 0 24 7285 25 79987 10667 3.6 28 8 1 6 25% 9441 63034 12887 48%
c d 26.34 29 220 0 24 7285 25 79987 10568 3.6 28 8 1 6 25% 9311 63034 12887 48%
c t 26.35 29 220 0 24 7285 25 79987 10568 3.6 28 8 1 6 25% 9269 63034 12887 48%
c f 26.36 29 220 0 24 7285 25 79987 10568 3.6 28 8 1 6 25% 9276 62993 12892 48%
c i 26.36 29 220 0 24 7285 25 80042 10614 3.6 28 8 1 6 25% 9280 62993 12891 48%
c i 26.36 29 220 0 24 7285 25 80059 10617 3.6 28 8 1 6 25% 9285 62993 12889 48%
c i 26.36 29 220 0 24 7285 25 80075 10620 3.6 28 8 1 6 25% 9289 62993 12877 48%
c i 26.36 29 220 0 24 7285 25 80076 10620 3.6 28 8 1 6 25% 9289 62993 12876 48%
c i 26.36 29 220 0 24 7285 25 80077 10620 3.6 28 8 1 6 25% 9289 62993 12869 48%
c } 26.36 29 220 0 24 7285 25 80079 10620 3.6 28 8 1 6 25% 9289 62993 12857 48%
c
c  seconds   switched     rate         size/glue tier1    binary         remaining
c         MB   reductions   conflicts        size  tier2     irredundant
c           level   restarts      redundant    glue   trail         variables
c
c 0 26.36 29 220 0 24 7285 25 80079 10620 3.6 28 8 1 6 25% 9289 62993 12857 48%
c
c ---- [ result ] ------------------------------------------------------------
c
s UNSATISFIABLE
c
c ---- [ profiling ] ---------------------------------------------------------
c
c          17.61   66.80 %  search
c          17.61   66.80 %  focused
c           8.21   31.15 %  simplify
c           8.01   30.38 %  probe
c           3.26   12.36 %  sweep
c           2.93   11.10 %  vivify
c           0.61    2.31 %  factor
c           0.55    2.07 %  congruence
c           0.48    1.81 %  substitute
c           0.48    1.80 %  eliminate
c           0.46    1.73 %  preprocess
c           0.17    0.66 %  fastel
c           0.15    0.58 %  reduce
c           0.13    0.49 %  transitive
c           0.09    0.33 %  subsume
c           0.06    0.24 %  backbone
c           0.05    0.19 %  lucky
c           0.03    0.13 %  parse
c =============================================
c          26.36  100.00 %  total
c
c ---- [ statistics ] --------------------------------------------------------
c
c chronological:                         4337                5 %  conflicts
c conflicts:                            80079             3037.73 per second
c congruent:                              265                1 %  variables
c decisions:                          2029594               25.34 per conflict
c eliminated:                           11362               43 %  variables
c factored:                              5002               19 %  variables
c fast_eliminated:                       8933               79 %  eliminated
c fast_subsumed:                          203                1 %  per subsumed
c iterations:                              14                0 %  variables
c propagations:                      82178528          3117374    per second
c reductions:                              24             3337    interval
c reordered:                                4            20020    interval
c restarts:                              7285               11    interval
c strengthened:                           592                0 %  checks
c substituted:                           7284               27 %  variables
c subsumed:                             14525                1 %  checks
c switched:                                 0                0    interval
c vivified:                             55604               12 %  checks
c
c ---- [ glue usage ] --------------------------------------------------------
c
c focused glue 1   used 101473 clauses 55.29% accumulated 55.29% tier1
c focused glue 2   used  39705 clauses 21.63% accumulated 76.92%
c focused glue 3-4 used  18608 clauses 10.14% accumulated 87.06%
c focused glue 5   used   4810 clauses  2.62% accumulated 89.68%
c focused glue 6   used   3741 clauses  2.04% accumulated 91.72% tier2
c
c ---- [ resources ] ---------------------------------------------------------
c
c maximum-resident-set-size:         30072832 bytes         29 MB
c process-time:                            26s              26.36 seconds
c
c ---- [ shutting down ] -----------------------------------------------------
c
c exit 20
